
Gurobi 9.5.1 (mac64[x86]) logging started Wed Jun  8 17:37:48 2022

Set parameter LogFile to value "/Users/keyvanmajd/Documents/GitHub/NNRepLayer_v2/demos/walking_example/repair_bound_constraint/repair_net/logs/opt_log_6_8_2022_17_37_15.log"
Gurobi Optimizer version 9.5.1 build v9.5.1rc2 (mac64[x86])
Thread count: 4 physical cores, 8 logical processors, using up to 8 threads
Optimize a model with 28012 rows, 17157 columns and 72588 nonzeros
Model fingerprint: 0x81e6fa66
Model has 101 quadratic objective terms
Variable types: 7557 continuous, 9600 integer (9600 binary)
Coefficient statistics:
  Matrix range     [1e-04, 3e+01]
  Objective range  [7e-04, 4e-01]
  QObjective range [2e-02, 2e+00]
  Bounds range     [1e+00, 3e+01]
  RHS range        [2e-04, 3e+01]
Presolve removed 16712 rows and 6656 columns
Presolve time: 0.15s
Presolved: 11300 rows, 10501 columns, 45776 nonzeros
Presolved model has 101 quadratic objective terms
Variable types: 7301 continuous, 3200 integer (3200 binary)
Found heuristic solution: objective 1.4467269
Found heuristic solution: objective 1.4467235
Root relaxation presolve removed 3200 rows and 3200 columns
Root relaxation presolved: 8100 rows, 7301 columns, 39376 nonzeros
Root relaxation presolved model has 101 quadratic objective terms


Root relaxation: objective 0.000000e+00, 10284 iterations, 0.82 seconds (1.76 work units)

    Nodes    |    Current Node    |     Objective Bounds      |     Work
 Expl Unexpl |  Obj  Depth IntInf | Incumbent    BestBd   Gap | It/Node Time

     0     0    0.00000    0 1063    1.44672    0.00000   100%     -    3s
H    0     0                       1.4289545    0.00000   100%     -    4s
     0     0    0.00114    0 1018    1.42895    0.00114   100%     -    6s
H    0     0                       0.8591659    0.00114   100%     -   10s
H    0     0                       0.8570897    0.00114   100%     -   10s
     0     0    0.00126    0 1017    0.85709    0.00126   100%     -   12s
     0     0    0.00146    0 1076    0.85709    0.00146   100%     -   14s
     0     0    0.00146    0 1062    0.85709    0.00146   100%     -   14s
     0     0    0.00223    0 1075    0.85709    0.00223   100%     -   15s
     0     0    0.00223    0 1077    0.85709    0.00223   100%     -   15s
     0     0    0.00297    0 1090    0.85709    0.00297   100%     -   16s
H    0     0                       0.8522330    0.00297   100%     -   16s
     0     0    0.00297    0 1092    0.85223    0.00297   100%     -   17s
     0     0    0.00307    0 1088    0.85223    0.00307   100%     -   18s
     0     0    0.00316    0 1076    0.85223    0.00316   100%     -   18s
     0     0    0.00348    0 1059    0.85223    0.00348   100%     -   19s
H    0     0                       0.8518270    0.00348   100%     -   19s
     0     0    0.00349    0 1073    0.85183    0.00349   100%     -   19s
     0     0    0.00387    0 1072    0.85183    0.00387   100%     -   20s
     0     0    0.00388    0 1071    0.85183    0.00388   100%     -   20s
     0     0    0.00393    0 1066    0.85183    0.00393   100%     -   21s
H    0     0                       0.8508277    0.00393   100%     -   21s
     0     0    0.00394    0 1062    0.85083    0.00394   100%     -   21s
     0     0    0.00396    0 1062    0.85083    0.00396   100%     -   22s
     0     0    0.00396    0 1057    0.85083    0.00396   100%     -   22s
     0     0    0.00398    0 1052    0.85083    0.00398   100%     -   23s
H    0     0                       0.8484730    0.00398   100%     -   24s
     0     0    0.00398    0 1050    0.84847    0.00398   100%     -   24s
     0     0    0.00398    0 1055    0.84847    0.00398   100%     -   25s
     0     0    0.00398    0 1055    0.84847    0.00398   100%     -   25s
     0     0    0.00398    0 1050    0.84847    0.00398   100%     -   25s
     0     2    0.00398    0 1050    0.84847    0.00398   100%     -   33s
     1     4    0.00496    1 1049    0.84847    0.00496  99.4%   417   35s
H   30    35                       0.8448686    0.00721  99.1%   453   37s
H   32    35                       0.8371674    0.00760  99.1%   427   37s
    34    39    0.00760    9 1053    0.83717    0.00760  99.1%   405   41s
    58    67    0.00774   15 1035    0.83717    0.00774  99.1%   244   51s
H   59    67                       0.8336111    0.00774  99.1%   240   51s
H   61    67                       0.8190392    0.00774  99.1%   232   51s
  1089  1110    0.01136  213  824    0.81904    0.00774  99.1%  27.2   55s
H 1103  1110                       0.8121720    0.00774  99.0%  26.9   55s
  1505  1521    0.01350  378  683    0.81217    0.00774  99.0%  29.7   62s
  1520  1547    0.01412  379  680    0.81217    0.00774  99.0%  69.7   66s
  1546  1614    0.01520  389  672    0.81217    0.00774  99.0%   100   71s
  1613  1680    0.01566  392  761    0.81217    0.00774  99.0%   116   75s
  1679  1707    0.01577  403  741    0.81217    0.00774  99.0%   134   82s
  1706  1770    0.01594  405  746    0.81217    0.00774  99.0%   159   85s
  1828  1872    0.02154  428  706    0.81217    0.00774  99.0%   200   95s
H 2139  2193                       0.8100155    0.00774  99.0%   212   98s
  2331  2468    0.10509  453  677    0.81002    0.00774  99.0%   202  100s
  3142  3285    0.17504  571  735    0.81002    0.00774  99.0%   177  105s
